Li8 O4
1.0
4.658842 0.000000 0.000000
0.000000 4.658842 0.000000
0.000000 0.000000 4.658842
Li O
8 4
direct
0.250000 0.250000 0.250000 Li
0.750000 0.750000 0.750000 Li
0.250000 0.750000 0.750000 Li
0.750000 0.250000 0.250000 Li
0.750000 0.250000 0.750000 Li
0.250000 0.750000 0.250000 Li
0.750000 0.750000 0.250000 Li
0.250000 0.250000 0.750000 Li
0.000000 0.000000 0.000000 O
0.000000 0.500000 0.500000 O
0.500000 0.000000 0.500000 O
0.500000 0.500000 0.000000 O
