Ca2 C2 O6
1.0
3.801850 -0.000010 0.000015
-0.000020 5.204353 -1.499288
0.000022 -0.323344 5.406355
O Ca C O Ca O
1 1 2 2 1 3
direct
0.749998 0.417004 0.582999 O
0.750009 0.804534 0.195457 Ca
1.000004 0.359185 0.359191 C
0.500000 0.640814 0.640815 C
0.250001 0.583000 0.417003 O
0.659921 0.865848 0.647395 O
0.249993 0.195455 0.804533 Ca
0.340079 0.647395 0.865850 O
0.159915 0.134157 0.352606 O
0.840080 0.352608 0.134152 O
